bad_dk_dual_Sheet2.sol
# Solution for model dual
# Objective value = 8.0453767899954642e+01
y[0] 25
y[1] 10
y[2] 15
y[3] 1.7581157260416003e+00
gamma[0,0] 0
gamma[0,1] 0
gamma[1,0] 6.0606060606060608e-02
gamma[1,1] 0
gamma[2,0] 0
gamma[2,1] 0
gamma[3,0] 2.7182012570465880e-01
gamma[3,1] 5.4945895159722657e-01
w[0,0] 0
w[0,1] 2.0163286464070490e-01
w[1,0] 0
w[1,1] 0
w[2,0] 0
w[2,1] 0
w[3,0] 0
w[3,1] 0
sigma[0,0] 4.6594094904857564e-01
sigma[0,1] 1
sigma[1,0] 1.0606060606060606e+00
sigma[1,1] 1
sigma[2,0] 1
sigma[2,1] 6.5217391304347827e-01
sigma[3,0] 1.2718201257046589e+00
sigma[3,1] 1.5494589515972266e+00
beta[0,0] 3.3242618631071946e-01
beta[0,1] 0
beta[1,0] 0
beta[1,1] 0
beta[2,0] 0
beta[2,1] 3.4782608695652173e-01
beta[3,0] 0
beta[3,1] 0
